(set-option :print-success true)
(set-option :produce-models true)
(set-option :produce-unsat-cores true)
(declare-const address__clif2__11 (_ BitVec 64))
(declare-const amode_to_gpr_mem__24 (_ BitVec 80))
(declare-const amode_to_gpr_mem__24__amode__92 (_ BitVec 80))
(declare-const amode_to_gpr_mem__24__result__93 (_ BitVec 80))
(declare-const and Int)
(declare-const ext_mode__22 (_ BitVec 3))
(declare-const ext_mode__22__result__61 (_ BitVec 3))
(declare-const ext_mode__22__x__59 (_ BitVec 16))
(declare-const ext_mode__22__y__60 (_ BitVec 16))
(declare-const fits_in_32__4 Int)
(declare-const fits_in_32__4__arg__27 Int)
(declare-const fits_in_32__4__result__28 Int)
(declare-const flags__clif1__8 (_ BitVec 16))
(declare-const has_type__18 (_ BitVec 64))
(declare-const has_type__18__arg__47 (_ BitVec 64))
(declare-const has_type__18__result__48 (_ BitVec 64))
(declare-const has_type__18__ty__46 Int)
(declare-const is_gpr_type__6 Int)
(declare-const is_gpr_type__6__arg__32 Int)
(declare-const is_gpr_type__6__result__33 Int)
(declare-const load__17 (_ BitVec 64))
(declare-const load__17__flags__37 (_ BitVec 16))
(declare-const load__17__offset__39 (_ BitVec 32))
(declare-const load__17__result__40 (_ BitVec 64))
(declare-const load__17__val__38 (_ BitVec 64))
(declare-const lower__19 (_ BitVec 64))
(declare-const lower__19__arg__52 (_ BitVec 64))
(declare-const lower__19__result__53 (_ BitVec 64))
(declare-const offset__clif3__14 (_ BitVec 32))
(declare-const output_gpr__26 (_ BitVec 64))
(declare-const output_gpr__26__result__131 (_ BitVec 64))
(declare-const output_gpr__26__x__130 (_ BitVec 64))
(declare-const to_amode__23 (_ BitVec 80))
(declare-const to_amode__23__flags__80 (_ BitVec 16))
(declare-const to_amode__23__offset__82 (_ BitVec 32))
(declare-const to_amode__23__result__83 (_ BitVec 80))
(declare-const to_amode__23__val__81 (_ BitVec 64))
(declare-const ty__clif0__1 Int)
(declare-const ty_bits_u16__20 (_ BitVec 16))
(declare-const ty_bits_u16__20__result__56 (_ BitVec 16))
(declare-const ty_bits_u16__20__x__55 Int)
(declare-const x64_movzx__25 (_ BitVec 64))
(declare-const x64_movzx__25__mode__95 (_ BitVec 3))
(declare-const x64_movzx__25__result__97 (_ BitVec 64))
(declare-const x64_movzx__25__src__96 (_ BitVec 80))
(declare-const width__65 Int)
(declare-const width__24 Int)
(declare-const width__9 Int)
(declare-const width__18 Int)
(declare-const width__40 Int)
(declare-const width__15 Int)
(declare-const width__76 Int)
(declare-const width__107 Int)
(declare-const width__17 Int)
(declare-const width__63 Int)
(declare-const width__84 Int)
(declare-const width__25 Int)
(declare-const width__61 Int)
(declare-const width__66 Int)
(declare-const width__92 Int)
(declare-const width__85 Int)
(declare-const width__47 Int)
(declare-const width__101 Int)
(declare-const width__21 Int)
(declare-const width__23 Int)
(declare-const width__39 Int)
(declare-const width__86 Int)
(declare-const width__83 Int)
(declare-const width__73 Int)
(declare-const width__43 Int)
(declare-const width__130 Int)
(declare-const width__103 Int)
(declare-const width__67 Int)
(declare-const width__60 Int)
(declare-const width__116 Int)
(declare-const width__11 Int)
(declare-const width__75 Int)
(declare-const width__26 Int)
(declare-const width__72 Int)
(declare-const width__59 Int)
(declare-const width__68 Int)
(declare-const width__77 Int)
(declare-const width__112 Int)
(declare-const width__62 Int)
(declare-const width__82 Int)
(declare-const width__44 Int)
(declare-const width__14 Int)
(declare-const width__105 Int)
(declare-const width__64 Int)
(declare-const width__93 Int)
(declare-const width__19 Int)
(declare-const width__124 Int)
(declare-const width__80 Int)
(declare-const width__81 Int)
(declare-const width__120 Int)
(declare-const width__38 Int)
(declare-const width__118 Int)
(declare-const width__95 Int)
(declare-const width__122 Int)
(declare-const width__56 Int)
(declare-const width__97 Int)
(declare-const width__99 Int)
(declare-const width__71 Int)
(declare-const width__20 Int)
(declare-const width__133 Int)
(declare-const width__74 Int)
(declare-const width__42 Int)
(declare-const width__96 Int)
(declare-const width__78 Int)
(declare-const width__12 Int)
(declare-const width__37 Int)
(declare-const width__70 Int)
(declare-const width__48 Int)
(declare-const width__57 Int)
(declare-const width__131 Int)
(declare-const width__22 Int)
(declare-const width__111 Int)
(declare-const width__52 Int)
(declare-const width__114 Int)
(declare-const width__53 Int)
(declare-const width__113 Int)
(declare-const width__109 Int)
(declare-const width__69 Int)
(declare-const width__8 Int)
(declare-const address__clif2__11_narrow__11 (_ BitVec 64))
(declare-const address__clif2__11_wide__11 (_ BitVec 128))
(declare-const fresh0 (_ BitVec 64))
(declare-const amode_to_gpr_mem__24_narrow__24 (_ BitVec 80))
(declare-const amode_to_gpr_mem__24_wide__24 (_ BitVec 128))
(declare-const fresh1 (_ BitVec 48))
(declare-const amode_to_gpr_mem__24__amode__92_narrow__92 (_ BitVec 80))
(declare-const amode_to_gpr_mem__24__amode__92_wide__92 (_ BitVec 128))
(declare-const fresh2 (_ BitVec 48))
(declare-const amode_to_gpr_mem__24__result__93_narrow__93 (_ BitVec 80))
(declare-const amode_to_gpr_mem__24__result__93_wide__93 (_ BitVec 128))
(declare-const fresh3 (_ BitVec 48))
(declare-const ext_mode__22_narrow__22 (_ BitVec 3))
(declare-const ext_mode__22_wide__22 (_ BitVec 128))
(declare-const fresh4 (_ BitVec 125))
(declare-const ext_mode__22__result__61_narrow__61 (_ BitVec 3))
(declare-const ext_mode__22__result__61_wide__61 (_ BitVec 128))
(declare-const fresh5 (_ BitVec 125))
(declare-const ext_mode__22__x__59_narrow__59 (_ BitVec 16))
(declare-const ext_mode__22__x__59_wide__59 (_ BitVec 128))
(declare-const fresh6 (_ BitVec 112))
(declare-const ext_mode__22__y__60_narrow__60 (_ BitVec 16))
(declare-const ext_mode__22__y__60_wide__60 (_ BitVec 128))
(declare-const fresh7 (_ BitVec 112))
(declare-const flags__clif1__8_narrow__8 (_ BitVec 16))
(declare-const flags__clif1__8_wide__8 (_ BitVec 128))
(declare-const fresh8 (_ BitVec 112))
(declare-const has_type__18_narrow__18 (_ BitVec 64))
(declare-const has_type__18_wide__18 (_ BitVec 128))
(declare-const fresh9 (_ BitVec 64))
(declare-const has_type__18__arg__47_narrow__47 (_ BitVec 64))
(declare-const has_type__18__arg__47_wide__47 (_ BitVec 128))
(declare-const fresh10 (_ BitVec 64))
(declare-const has_type__18__result__48_narrow__48 (_ BitVec 64))
(declare-const has_type__18__result__48_wide__48 (_ BitVec 128))
(declare-const fresh11 (_ BitVec 64))
(declare-const load__17_narrow__17 (_ BitVec 64))
(declare-const load__17_wide__17 (_ BitVec 128))
(declare-const fresh12 (_ BitVec 64))
(declare-const load__17__flags__37_narrow__37 (_ BitVec 16))
(declare-const load__17__flags__37_wide__37 (_ BitVec 128))
(declare-const fresh13 (_ BitVec 112))
(declare-const load__17__offset__39_narrow__39 (_ BitVec 32))
(declare-const load__17__offset__39_wide__39 (_ BitVec 128))
(declare-const fresh14 (_ BitVec 96))
(declare-const load__17__result__40_narrow__40 (_ BitVec 64))
(declare-const load__17__result__40_wide__40 (_ BitVec 128))
(declare-const fresh15 (_ BitVec 64))
(declare-const load__17__val__38_narrow__38 (_ BitVec 64))
(declare-const load__17__val__38_wide__38 (_ BitVec 128))
(declare-const fresh16 (_ BitVec 64))
(declare-const lower__19_narrow__19 (_ BitVec 64))
(declare-const lower__19_wide__19 (_ BitVec 128))
(declare-const fresh17 (_ BitVec 64))
(declare-const lower__19__arg__52_narrow__52 (_ BitVec 64))
(declare-const lower__19__arg__52_wide__52 (_ BitVec 128))
(declare-const fresh18 (_ BitVec 64))
(declare-const lower__19__result__53_narrow__53 (_ BitVec 64))
(declare-const lower__19__result__53_wide__53 (_ BitVec 128))
(declare-const fresh19 (_ BitVec 64))
(declare-const offset__clif3__14_narrow__14 (_ BitVec 32))
(declare-const offset__clif3__14_wide__14 (_ BitVec 128))
(declare-const fresh20 (_ BitVec 96))
(declare-const output_gpr__26_narrow__26 (_ BitVec 64))
(declare-const output_gpr__26_wide__26 (_ BitVec 128))
(declare-const fresh21 (_ BitVec 64))
(declare-const output_gpr__26__result__131_narrow__131 (_ BitVec 64))
(declare-const output_gpr__26__result__131_wide__131 (_ BitVec 128))
(declare-const fresh22 (_ BitVec 64))
(declare-const output_gpr__26__x__130_narrow__130 (_ BitVec 64))
(declare-const output_gpr__26__x__130_wide__130 (_ BitVec 128))
(declare-const fresh23 (_ BitVec 64))
(declare-const to_amode__23_narrow__23 (_ BitVec 80))
(declare-const to_amode__23_wide__23 (_ BitVec 128))
(declare-const fresh24 (_ BitVec 48))
(declare-const to_amode__23__flags__80_narrow__80 (_ BitVec 16))
(declare-const to_amode__23__flags__80_wide__80 (_ BitVec 128))
(declare-const fresh25 (_ BitVec 112))
(declare-const to_amode__23__offset__82_narrow__82 (_ BitVec 32))
(declare-const to_amode__23__offset__82_wide__82 (_ BitVec 128))
(declare-const fresh26 (_ BitVec 96))
(declare-const to_amode__23__result__83_narrow__83 (_ BitVec 80))
(declare-const to_amode__23__result__83_wide__83 (_ BitVec 128))
(declare-const fresh27 (_ BitVec 48))
(declare-const to_amode__23__val__81_narrow__81 (_ BitVec 64))
(declare-const to_amode__23__val__81_wide__81 (_ BitVec 128))
(declare-const fresh28 (_ BitVec 64))
(declare-const ty_bits_u16__20_narrow__20 (_ BitVec 16))
(declare-const ty_bits_u16__20_wide__20 (_ BitVec 128))
(declare-const fresh29 (_ BitVec 112))
(declare-const ty_bits_u16__20__result__56_narrow__56 (_ BitVec 16))
(declare-const ty_bits_u16__20__result__56_wide__56 (_ BitVec 128))
(declare-const fresh30 (_ BitVec 112))
(declare-const x64_movzx__25_narrow__25 (_ BitVec 64))
(declare-const x64_movzx__25_wide__25 (_ BitVec 128))
(declare-const fresh31 (_ BitVec 64))
(declare-const x64_movzx__25__mode__95_narrow__95 (_ BitVec 3))
(declare-const x64_movzx__25__mode__95_wide__95 (_ BitVec 128))
(declare-const fresh32 (_ BitVec 125))
(declare-const x64_movzx__25__result__97_narrow__97 (_ BitVec 64))
(declare-const x64_movzx__25__result__97_wide__97 (_ BitVec 128))
(declare-const fresh33 (_ BitVec 64))
(declare-const x64_movzx__25__src__96_narrow__96 (_ BitVec 80))
(declare-const x64_movzx__25__src__96_wide__96 (_ BitVec 128))
(declare-const fresh34 (_ BitVec 48))
(declare-const fresh35 Int)
(declare-const fresh36 Int)
(declare-const fresh37 (_ BitVec 128))
(declare-const fresh38 (_ BitVec 128))
(declare-const fresh39 (_ BitVec 128))
(declare-const fresh40 (_ BitVec 128))
(declare-const fresh41 (_ BitVec 112))
(declare-const fresh42 (_ BitVec 64))
(push)
(assert (! (= ty__clif0__1 fresh35) :named dyn0))
(assert (! (= fits_in_32__4__result__28 fits_in_32__4__arg__27) :named dyn1))
(assert (! (<= fits_in_32__4__arg__27 32) :named dyn2))
(assert (! (= ty__clif0__1 fits_in_32__4__arg__27) :named dyn3))
(assert (! (= fits_in_32__4 fits_in_32__4__result__28) :named dyn4))
(assert (! (= is_gpr_type__6__result__33 is_gpr_type__6__arg__32) :named dyn5))
(assert (! (<= is_gpr_type__6__arg__32 64) :named dyn6))
(assert (! (= fresh36 is_gpr_type__6__arg__32) :named dyn7))
(assert (! (= is_gpr_type__6 is_gpr_type__6__result__33) :named dyn8))
(assert (! (= fits_in_32__4 is_gpr_type__6) :named dyn9))
(assert (! (= flags__clif1__8_wide__8 fresh37) :named dyn10))
(assert (! (= address__clif2__11_wide__11 fresh38) :named dyn11))
(assert (! (= offset__clif3__14_wide__14 fresh39) :named dyn12))
(assert (! (= load__17__result__40_wide__40 fresh40) :named dyn13))
(assert (! (= flags__clif1__8_wide__8 load__17__flags__37_wide__37) :named dyn14))
(assert (! (= address__clif2__11_wide__11 load__17__val__38_wide__38) :named dyn15))
(assert (! (= offset__clif3__14_wide__14 load__17__offset__39_wide__39) :named dyn16))
(assert (! (= load__17_wide__17 load__17__result__40_wide__40) :named dyn17))
(assert (! (= has_type__18__result__48_wide__48 has_type__18__arg__47_wide__47) :named dyn18))
(assert (! (= has_type__18__ty__46 width__47) :named dyn19))
(assert (! (= fits_in_32__4 has_type__18__ty__46) :named dyn20))
(assert (! (= load__17_wide__17 has_type__18__arg__47_wide__47) :named dyn21))
(assert (! (= has_type__18_wide__18 has_type__18__result__48_wide__48) :named dyn22))
(assert (! (= lower__19__result__53_wide__53 lower__19__arg__52_wide__52) :named dyn23))
(assert (! (= has_type__18_wide__18 lower__19__arg__52_wide__52) :named dyn24))
(assert (! (= lower__19_wide__19 lower__19__result__53_wide__53) :named dyn25))
(assert (! (= ty_bits_u16__20__result__56_wide__56 ((_ zero_extend 112) ((_ int2bv 16) ty_bits_u16__20__x__55))) :named dyn26))
(assert (! (= ty__clif0__1 ty_bits_u16__20__x__55) :named dyn27))
(assert (! (= ty_bits_u16__20_wide__20 ty_bits_u16__20__result__56_wide__56) :named dyn28))
(assert (! (= ext_mode__22__result__61_wide__61 (ite (= ext_mode__22__x__59_wide__59 ((_ zero_extend 112) (_ bv8 16))) (ite (= ext_mode__22__y__60_wide__60 ((_ zero_extend 112) (_ bv32 16))) ((_ zero_extend 125) (_ bv0 3)) ((_ zero_extend 125) (_ bv1 3))) (ite (= ext_mode__22__x__59_wide__59 ((_ zero_extend 112) (_ bv16 16))) (ite (= ext_mode__22__y__60_wide__60 ((_ zero_extend 112) (_ bv32 16))) ((_ zero_extend 125) (_ bv2 3)) ((_ zero_extend 125) (_ bv3 3))) ((_ zero_extend 125) (_ bv4 3))))) :named dyn29))
(assert (! (= ty_bits_u16__20_wide__20 ext_mode__22__x__59_wide__59) :named dyn30))
(assert (! (= ((_ zero_extend 112) (_ bv64 16)) ext_mode__22__y__60_wide__60) :named dyn31))
(assert (! (= ext_mode__22_wide__22 ext_mode__22__result__61_wide__61) :named dyn32))
(assert (! (= to_amode__23__result__83_wide__83 to_amode__23__flags__80_wide__80) :named dyn33))
(assert (! (= flags__clif1__8_wide__8 to_amode__23__flags__80_wide__80) :named dyn34))
(assert (! (= address__clif2__11_wide__11 to_amode__23__val__81_wide__81) :named dyn35))
(assert (! (= offset__clif3__14_wide__14 to_amode__23__offset__82_wide__82) :named dyn36))
(assert (! (= to_amode__23_wide__23 to_amode__23__result__83_wide__83) :named dyn37))
(assert (! (= amode_to_gpr_mem__24__result__93_wide__93 amode_to_gpr_mem__24__amode__92_wide__92) :named dyn38))
(assert (! (= to_amode__23_wide__23 amode_to_gpr_mem__24__amode__92_wide__92) :named dyn39))
(assert (! (= amode_to_gpr_mem__24_wide__24 amode_to_gpr_mem__24__result__93_wide__93) :named dyn40))
(assert (! (= x64_movzx__25__result__97_wide__97 fresh40) :named dyn41))
(assert (! (= ext_mode__22_wide__22 x64_movzx__25__mode__95_wide__95) :named dyn42))
(assert (! (= amode_to_gpr_mem__24_wide__24 x64_movzx__25__src__96_wide__96) :named dyn43))
(assert (! (= x64_movzx__25_wide__25 x64_movzx__25__result__97_wide__97) :named dyn44))
(assert (! (= output_gpr__26__result__131_wide__131 output_gpr__26__x__130_wide__130) :named dyn45))
(assert (! (= x64_movzx__25_wide__25 output_gpr__26__x__130_wide__130) :named dyn46))
(assert (! (= output_gpr__26_wide__26 output_gpr__26__result__131_wide__131) :named dyn47))
(assert (! (= width__65 16) :named dyn48))
(assert (! (= width__24 80) :named dyn49))
(assert (! (= width__9 16) :named dyn50))
(assert (! (= width__18 64) :named dyn51))
(assert (! (= width__40 64) :named dyn52))
(assert (! (= width__15 32) :named dyn53))
(assert (! (= width__76 3) :named dyn54))
(assert (! (= width__107 3) :named dyn55))
(assert (! (= width__17 64) :named dyn56))
(assert (! (= width__63 16) :named dyn57))
(assert (! (= width__84 80) :named dyn58))
(assert (! (= width__25 64) :named dyn59))
(assert (! (= width__61 3) :named dyn60))
(assert (! (= width__66 3) :named dyn61))
(assert (! (= width__92 80) :named dyn62))
(assert (! (= width__85 64) :named dyn63))
(assert (! (= width__47 64) :named dyn64))
(assert (! (= width__101 3) :named dyn65))
(assert (! (= width__21 16) :named dyn66))
(assert (! (= width__23 80) :named dyn67))
(assert (! (= width__39 32) :named dyn68))
(assert (! (= width__86 64) :named dyn69))
(assert (! (= width__83 80) :named dyn70))
(assert (! (= width__73 16) :named dyn71))
(assert (! (= width__43 64) :named dyn72))
(assert (! (= width__130 64) :named dyn73))
(assert (! (= width__103 3) :named dyn74))
(assert (! (= width__67 16) :named dyn75))
(assert (! (= width__60 16) :named dyn76))
(assert (! (= width__116 3) :named dyn77))
(assert (! (= width__11 64) :named dyn78))
(assert (! (= width__75 16) :named dyn79))
(assert (! (= width__26 64) :named dyn80))
(assert (! (= width__72 3) :named dyn81))
(assert (! (= width__59 16) :named dyn82))
(assert (! (= width__68 3) :named dyn83))
(assert (! (= width__77 16) :named dyn84))
(assert (! (> width__112 0) :named dyn85))
(assert (! (= width__62 3) :named dyn86))
(assert (! (= width__82 32) :named dyn87))
(assert (! (= width__44 64) :named dyn88))
(assert (! (= width__14 32) :named dyn89))
(assert (! (= width__105 3) :named dyn90))
(assert (! (= width__64 3) :named dyn91))
(assert (! (= width__93 80) :named dyn92))
(assert (! (= width__19 64) :named dyn93))
(assert (! (= width__124 3) :named dyn94))
(assert (! (= width__80 16) :named dyn95))
(assert (! (= width__81 64) :named dyn96))
(assert (! (= width__120 3) :named dyn97))
(assert (! (= width__38 64) :named dyn98))
(assert (! (= width__118 3) :named dyn99))
(assert (! (= width__95 3) :named dyn100))
(assert (! (= width__122 3) :named dyn101))
(assert (! (= width__56 16) :named dyn102))
(assert (! (= width__97 64) :named dyn103))
(assert (! (= width__99 16) :named dyn104))
(assert (! (= width__71 16) :named dyn105))
(assert (! (= width__20 16) :named dyn106))
(assert (! (= width__133 64) :named dyn107))
(assert (! (= width__74 3) :named dyn108))
(assert (! (= width__42 64) :named dyn109))
(assert (! (= width__96 80) :named dyn110))
(assert (! (= width__78 3) :named dyn111))
(assert (! (= width__12 64) :named dyn112))
(assert (! (= width__37 16) :named dyn113))
(assert (! (= width__70 3) :named dyn114))
(assert (! (= width__48 64) :named dyn115))
(assert (! (= width__57 16) :named dyn116))
(assert (! (= width__131 64) :named dyn117))
(assert (! (= width__22 3) :named dyn118))
(assert (! (= width__111 64) :named dyn119))
(assert (! (= width__52 64) :named dyn120))
(assert (! (= width__114 64) :named dyn121))
(assert (! (= width__53 64) :named dyn122))
(assert (! (= width__113 32) :named dyn123))
(assert (! (= width__109 3) :named dyn124))
(assert (! (= width__69 16) :named dyn125))
(assert (! (= width__8 16) :named dyn126))
(assert (! (= width__43 width__38) :named dyn127))
(assert (! (= width__42 64) :named dyn128))
(assert (! (= width__44 width__40) :named dyn129))
(assert (! (= width__62 width__64) :named dyn130))
(assert (! (= width__62 width__70) :named dyn131))
(assert (! (= width__62 width__76) :named dyn132))
(assert (! (= width__59 width__63) :named dyn133))
(assert (! (= width__59 width__69) :named dyn134))
(assert (! (= width__59 width__75) :named dyn135))
(assert (! (= width__64 width__66) :named dyn136))
(assert (! (= width__64 width__68) :named dyn137))
(assert (! (= width__60 width__65) :named dyn138))
(assert (! (= width__60 width__67) :named dyn139))
(assert (! (= width__70 width__72) :named dyn140))
(assert (! (= width__70 width__74) :named dyn141))
(assert (! (= width__60 width__71) :named dyn142))
(assert (! (= width__60 width__73) :named dyn143))
(assert (! (= width__76 width__78) :named dyn144))
(assert (! (= width__60 width__77) :named dyn145))
(assert (! (= width__84 (+ width__80 width__86)) :named dyn146))
(assert (! (= width__86 width__81) :named dyn147))
(assert (! (= width__85 64) :named dyn148))
(assert (! (= width__113 32) :named dyn149))
(assert (! (= width__95 width__101) :named dyn150))
(assert (! (= width__95 width__103) :named dyn151))
(assert (! (= width__95 width__105) :named dyn152))
(assert (! (= width__95 width__107) :named dyn153))
(assert (! (= width__95 width__109) :named dyn154))
(assert (! (= width__112 (ite (= x64_movzx__25__mode__95_wide__95 ((_ zero_extend 125) (_ bv0 3))) 8 (ite (= x64_movzx__25__mode__95_wide__95 ((_ zero_extend 125) (_ bv1 3))) 8 (ite (= x64_movzx__25__mode__95_wide__95 ((_ zero_extend 125) (_ bv2 3))) 16 (ite (= x64_movzx__25__mode__95_wide__95 ((_ zero_extend 125) (_ bv3 3))) 16 32))))) :named dyn155))
(assert (! (= width__133 width__131) :named dyn156))
(assert (! (= address__clif2__11_narrow__11 address__clif2__11) :named dyn157))
(assert (! (= address__clif2__11_wide__11 (concat fresh0 address__clif2__11_narrow__11)) :named dyn158))
(assert (! (= amode_to_gpr_mem__24_narrow__24 amode_to_gpr_mem__24) :named dyn159))
(assert (! (= amode_to_gpr_mem__24_wide__24 (concat fresh1 amode_to_gpr_mem__24_narrow__24)) :named dyn160))
(assert (! (= amode_to_gpr_mem__24__amode__92_narrow__92 amode_to_gpr_mem__24__amode__92) :named dyn161))
(assert (! (= amode_to_gpr_mem__24__amode__92_wide__92 (concat fresh2 amode_to_gpr_mem__24__amode__92_narrow__92)) :named dyn162))
(assert (! (= amode_to_gpr_mem__24__result__93_narrow__93 amode_to_gpr_mem__24__result__93) :named dyn163))
(assert (! (= amode_to_gpr_mem__24__result__93_wide__93 (concat fresh3 amode_to_gpr_mem__24__result__93_narrow__93)) :named dyn164))
(assert (! (= ext_mode__22_narrow__22 ext_mode__22) :named dyn165))
(assert (! (= ext_mode__22_wide__22 (concat fresh4 ext_mode__22_narrow__22)) :named dyn166))
(assert (! (= ext_mode__22__result__61_narrow__61 ext_mode__22__result__61) :named dyn167))
(assert (! (= ext_mode__22__result__61_wide__61 (concat fresh5 ext_mode__22__result__61_narrow__61)) :named dyn168))
(assert (! (= ext_mode__22__x__59_narrow__59 ext_mode__22__x__59) :named dyn169))
(assert (! (= ext_mode__22__x__59_wide__59 (concat fresh6 ext_mode__22__x__59_narrow__59)) :named dyn170))
(assert (! (= ext_mode__22__y__60_narrow__60 ext_mode__22__y__60) :named dyn171))
(assert (! (= ext_mode__22__y__60_wide__60 (concat fresh7 ext_mode__22__y__60_narrow__60)) :named dyn172))
(assert (! (= flags__clif1__8_narrow__8 flags__clif1__8) :named dyn173))
(assert (! (= flags__clif1__8_wide__8 (concat fresh8 flags__clif1__8_narrow__8)) :named dyn174))
(assert (! (= has_type__18_narrow__18 has_type__18) :named dyn175))
(assert (! (= has_type__18_wide__18 (concat fresh9 has_type__18_narrow__18)) :named dyn176))
(assert (! (= has_type__18__arg__47_narrow__47 has_type__18__arg__47) :named dyn177))
(assert (! (= has_type__18__arg__47_wide__47 (concat fresh10 has_type__18__arg__47_narrow__47)) :named dyn178))
(assert (! (= has_type__18__result__48_narrow__48 has_type__18__result__48) :named dyn179))
(assert (! (= has_type__18__result__48_wide__48 (concat fresh11 has_type__18__result__48_narrow__48)) :named dyn180))
(assert (! (= load__17_narrow__17 load__17) :named dyn181))
(assert (! (= load__17_wide__17 (concat fresh12 load__17_narrow__17)) :named dyn182))
(assert (! (= load__17__flags__37_narrow__37 load__17__flags__37) :named dyn183))
(assert (! (= load__17__flags__37_wide__37 (concat fresh13 load__17__flags__37_narrow__37)) :named dyn184))
(assert (! (= load__17__offset__39_narrow__39 load__17__offset__39) :named dyn185))
(assert (! (= load__17__offset__39_wide__39 (concat fresh14 load__17__offset__39_narrow__39)) :named dyn186))
(assert (! (= load__17__result__40_narrow__40 load__17__result__40) :named dyn187))
(assert (! (= load__17__result__40_wide__40 (concat fresh15 load__17__result__40_narrow__40)) :named dyn188))
(assert (! (= load__17__val__38_narrow__38 load__17__val__38) :named dyn189))
(assert (! (= load__17__val__38_wide__38 (concat fresh16 load__17__val__38_narrow__38)) :named dyn190))
(assert (! (= lower__19_narrow__19 lower__19) :named dyn191))
(assert (! (= lower__19_wide__19 (concat fresh17 lower__19_narrow__19)) :named dyn192))
(assert (! (= lower__19__arg__52_narrow__52 lower__19__arg__52) :named dyn193))
(assert (! (= lower__19__arg__52_wide__52 (concat fresh18 lower__19__arg__52_narrow__52)) :named dyn194))
(assert (! (= lower__19__result__53_narrow__53 lower__19__result__53) :named dyn195))
(assert (! (= lower__19__result__53_wide__53 (concat fresh19 lower__19__result__53_narrow__53)) :named dyn196))
(assert (! (= offset__clif3__14_narrow__14 offset__clif3__14) :named dyn197))
(assert (! (= offset__clif3__14_wide__14 (concat fresh20 offset__clif3__14_narrow__14)) :named dyn198))
(assert (! (= output_gpr__26_narrow__26 output_gpr__26) :named dyn199))
(assert (! (= output_gpr__26_wide__26 (concat fresh21 output_gpr__26_narrow__26)) :named dyn200))
(assert (! (= output_gpr__26__result__131_narrow__131 output_gpr__26__result__131) :named dyn201))
(assert (! (= output_gpr__26__result__131_wide__131 (concat fresh22 output_gpr__26__result__131_narrow__131)) :named dyn202))
(assert (! (= output_gpr__26__x__130_narrow__130 output_gpr__26__x__130) :named dyn203))
(assert (! (= output_gpr__26__x__130_wide__130 (concat fresh23 output_gpr__26__x__130_narrow__130)) :named dyn204))
(assert (! (= to_amode__23_narrow__23 to_amode__23) :named dyn205))
(assert (! (= to_amode__23_wide__23 (concat fresh24 to_amode__23_narrow__23)) :named dyn206))
(assert (! (= to_amode__23__flags__80_narrow__80 to_amode__23__flags__80) :named dyn207))
(assert (! (= to_amode__23__flags__80_wide__80 (concat fresh25 to_amode__23__flags__80_narrow__80)) :named dyn208))
(assert (! (= to_amode__23__offset__82_narrow__82 to_amode__23__offset__82) :named dyn209))
(assert (! (= to_amode__23__offset__82_wide__82 (concat fresh26 to_amode__23__offset__82_narrow__82)) :named dyn210))
(assert (! (= to_amode__23__result__83_narrow__83 to_amode__23__result__83) :named dyn211))
(assert (! (= to_amode__23__result__83_wide__83 (concat fresh27 to_amode__23__result__83_narrow__83)) :named dyn212))
(assert (! (= to_amode__23__val__81_narrow__81 to_amode__23__val__81) :named dyn213))
(assert (! (= to_amode__23__val__81_wide__81 (concat fresh28 to_amode__23__val__81_narrow__81)) :named dyn214))
(assert (! (= ty_bits_u16__20_narrow__20 ty_bits_u16__20) :named dyn215))
(assert (! (= ty_bits_u16__20_wide__20 (concat fresh29 ty_bits_u16__20_narrow__20)) :named dyn216))
(assert (! (= ty_bits_u16__20__result__56_narrow__56 ty_bits_u16__20__result__56) :named dyn217))
(assert (! (= ty_bits_u16__20__result__56_wide__56 (concat fresh30 ty_bits_u16__20__result__56_narrow__56)) :named dyn218))
(assert (! (= x64_movzx__25_narrow__25 x64_movzx__25) :named dyn219))
(assert (! (= x64_movzx__25_wide__25 (concat fresh31 x64_movzx__25_narrow__25)) :named dyn220))
(assert (! (= x64_movzx__25__mode__95_narrow__95 x64_movzx__25__mode__95) :named dyn221))
(assert (! (= x64_movzx__25__mode__95_wide__95 (concat fresh32 x64_movzx__25__mode__95_narrow__95)) :named dyn222))
(assert (! (= x64_movzx__25__result__97_narrow__97 x64_movzx__25__result__97) :named dyn223))
(assert (! (= x64_movzx__25__result__97_wide__97 (concat fresh33 x64_movzx__25__result__97_narrow__97)) :named dyn224))
(assert (! (= x64_movzx__25__src__96_narrow__96 x64_movzx__25__src__96) :named dyn225))
(assert (! (= x64_movzx__25__src__96_wide__96 (concat fresh34 x64_movzx__25__src__96_narrow__96)) :named dyn226))
(check-sat)
(get-unsat-core)
